B10\(6)
1.0
        6.4553999901         0.0000000000         0.0000000000
        0.0000000000         3.7270998955         0.0000000000
        0.0000000000         0.0000000000         2.8929998875
    B
   20
Direct
     0.375690013         0.624310017         0.250000000
     0.875689983         0.124310002         0.250000000
     0.124310002         0.875689983         0.750000000
     0.624310017         0.375690013         0.750000000
     0.000000000         0.751380026         0.250000000
     0.500000000         0.251379997         0.250000000
     0.000000000         0.248620003         0.750000000
     0.500000000         0.748619974         0.750000000
     0.124310002         0.124310002         0.250000000
     0.624310017         0.624310017         0.250000000
     0.375690013         0.375690013         0.750000000
     0.875689983         0.875689983         0.750000000
     0.166669995         0.500000000         0.000000000
     0.666670024         0.000000000         0.000000000
     0.333330005         0.000000000         0.000000000
     0.833329976         0.500000000         0.000000000
     0.333330005         0.000000000         0.500000000
     0.833329976         0.500000000         0.500000000
     0.166669995         0.500000000         0.500000000
     0.666670024         0.000000000         0.500000000
