 B10\(6)                                 
   1.0000000000000000     
      90.643199921      0.000000000      0.000000000
       0.000000000      3.727099895      0.000000000
       0.000000000      0.000000000      2.892999887
 B  B                                                                            
          20          20
 Direct                                                                          
       0.026755778      0.624310017      0.250000000
       0.062364624      0.124310002      0.250000000
       0.008853072      0.875689983      0.750000000
       0.044461922      0.375690013      0.750000000
       0.000000000      0.751380026      0.250000000
       0.035608849      0.251379997      0.250000000
       0.000000000      0.248620003      0.750000000
       0.035608849      0.748619974      0.750000000
       0.008853072      0.124310002      0.250000000
       0.044461922      0.624310017      0.250000000
       0.026755778      0.375690013      0.750000000
       0.062364624      0.875689983      0.750000000
       0.011869853      0.500000000      0.000000000
       0.047478704      0.000000000      0.000000000
       0.023738995      0.000000000      0.000000000
       0.059347842      0.500000000      0.000000000
       0.023738995      0.000000000      0.500000000
       0.059347842      0.500000000      0.500000000
       0.011869853      0.500000000      0.500000000
       0.047478704      0.000000000      0.500000000
       0.175199345      0.624310017      0.250000000
       0.210808192      0.124310002      0.250000000
       0.157296640      0.875689983      0.750000000
       0.192905490      0.375690013      0.750000000
       0.148443568      0.751380026      0.250000000
       0.184052417      0.251379997      0.250000000
       0.148443568      0.248620003      0.750000000
       0.184052417      0.748619974      0.750000000
       0.157296640      0.124310002      0.250000000
       0.192905490      0.624310017      0.250000000
       0.175199345      0.375690013      0.750000000
       0.210808192      0.875689983      0.750000000
       0.160313421      0.500000000      0.000000000
       0.195922272      0.000000000      0.000000000
       0.172182563      0.000000000      0.000000000
       0.207791410      0.500000000      0.000000000
       0.172182563      0.000000000      0.500000000
       0.207791410      0.500000000      0.500000000
       0.160313421      0.500000000      0.500000000
       0.195922272      0.000000000      0.500000000
