 B10\(6)                                 
   1.0000000000000000     
      41.821599960      0.000000000      0.000000000
       0.000000000      3.727099895      0.000000000
       0.000000000      0.000000000      2.892999887
 B  B                                                                            
          20          20
 Direct                                                                          
       0.057989874      0.624310017      0.250000000
       0.135167691      0.124310002      0.250000000
       0.019187950      0.875689983      0.750000000
       0.096365775      0.375690013      0.750000000
       0.000000000      0.751380026      0.250000000
       0.077177822      0.251379997      0.250000000
       0.000000000      0.248620003      0.750000000
       0.077177822      0.748619974      0.750000000
       0.019187950      0.124310002      0.250000000
       0.096365775      0.624310017      0.250000000
       0.057989874      0.375690013      0.750000000
       0.135167691      0.875689983      0.750000000
       0.025726454      0.500000000      0.000000000
       0.102904281      0.000000000      0.000000000
       0.051451368      0.000000000      0.000000000
       0.128629185      0.500000000      0.000000000
       0.051451368      0.000000000      0.500000000
       0.128629185      0.500000000      0.500000000
       0.025726454      0.500000000      0.500000000
       0.102904281      0.000000000      0.500000000
       0.355812052      0.624310017      0.250000000
       0.432989869      0.124310002      0.250000000
       0.317010128      0.875689983      0.750000000
       0.394187953      0.375690013      0.750000000
       0.297822178      0.751380026      0.250000000
       0.375000000      0.251379997      0.250000000
       0.297822178      0.248620003      0.750000000
       0.375000000      0.748619974      0.750000000
       0.317010128      0.124310002      0.250000000
       0.394187953      0.624310017      0.250000000
       0.355812052      0.375690013      0.750000000
       0.432989869      0.875689983      0.750000000
       0.323548632      0.500000000      0.000000000
       0.400726459      0.000000000      0.000000000
       0.349273546      0.000000000      0.000000000
       0.426451363      0.500000000      0.000000000
       0.349273546      0.000000000      0.500000000
       0.426451363      0.500000000      0.500000000
       0.323548632      0.500000000      0.500000000
       0.400726459      0.000000000      0.500000000
