 B10\(6)                                 
   1.0000000000000000     
      18.910799980      0.000000000      0.000000000
       0.000000000      3.727099895      0.000000000
       0.000000000      0.000000000      2.892999887
 B  B                                                                            
          20          20
 Direct                                                                          
       0.128245728      0.624310017      0.250000000
       0.298925964      0.124310002      0.250000000
       0.042434523      0.875689983      0.750000000
       0.213114775      0.375690013      0.750000000
       0.000000000      0.751380026      0.250000000
       0.170680246      0.251379997      0.250000000
       0.000000000      0.248620003      0.750000000
       0.170680246      0.748619974      0.750000000
       0.042434523      0.124310002      0.250000000
       0.213114775      0.624310017      0.250000000
       0.128245728      0.375690013      0.750000000
       0.298925964      0.875689983      0.750000000
       0.056894552      0.500000000      0.000000000
       0.227574808      0.000000000      0.000000000
       0.113785695      0.000000000      0.000000000
       0.284465931      0.500000000      0.000000000
       0.113785695      0.000000000      0.500000000
       0.284465931      0.500000000      0.500000000
       0.056894552      0.500000000      0.500000000
       0.227574808      0.000000000      0.500000000
       0.786885236      0.624310017      0.250000000
       0.957565471      0.124310002      0.250000000
       0.701074031      0.875689983      0.750000000
       0.871754282      0.375690013      0.750000000
       0.658639508      0.751380026      0.250000000
       0.829319754      0.251379997      0.250000000
       0.658639508      0.248620003      0.750000000
       0.829319754      0.748619974      0.750000000
       0.701074031      0.124310002      0.250000000
       0.871754282      0.624310017      0.250000000
       0.786885236      0.375690013      0.750000000
       0.957565471      0.875689983      0.750000000
       0.715534059      0.500000000      0.000000000
       0.886214315      0.000000000      0.000000000
       0.772425202      0.000000000      0.000000000
       0.943105439      0.500000000      0.000000000
       0.772425202      0.000000000      0.500000000
       0.943105439      0.500000000      0.500000000
       0.715534059      0.500000000      0.500000000
       0.886214315      0.000000000      0.500000000
