 B10\(6)                                 
   1.0000000000000000     
      17.910799980      0.000000000      0.000000000
       0.000000000      3.727099895      0.000000000
       0.000000000      0.000000000      2.892999887
 B  B                                                                            
          20          20
 Direct                                                                          
       0.135405973      0.624310017      0.250000000
       0.315615668      0.124310002      0.250000000
       0.044803738      0.875689983      0.750000000
       0.225013449      0.375690013      0.750000000
       0.000000000      0.751380026      0.250000000
       0.180209706      0.251379997      0.250000000
       0.000000000      0.248620003      0.750000000
       0.180209706      0.748619974      0.750000000
       0.044803738      0.124310002      0.250000000
       0.225013449      0.624310017      0.250000000
       0.135405973      0.375690013      0.750000000
       0.315615668      0.875689983      0.750000000
       0.060071102      0.500000000      0.000000000
       0.240280818      0.000000000      0.000000000
       0.120138604      0.000000000      0.000000000
       0.300348300      0.500000000      0.000000000
       0.120138604      0.000000000      0.500000000
       0.300348300      0.500000000      0.500000000
       0.060071102      0.500000000      0.500000000
       0.240280818      0.000000000      0.500000000
       0.774986562      0.624310017      0.250000000
       0.955196257      0.124310002      0.250000000
       0.684384326      0.875689983      0.750000000
       0.864594037      0.375690013      0.750000000
       0.639580588      0.751380026      0.250000000
       0.819790294      0.251379997      0.250000000
       0.639580588      0.248620003      0.750000000
       0.819790294      0.748619974      0.750000000
       0.684384326      0.124310002      0.250000000
       0.864594037      0.624310017      0.250000000
       0.774986562      0.375690013      0.750000000
       0.955196257      0.875689983      0.750000000
       0.699651690      0.500000000      0.000000000
       0.879861406      0.000000000      0.000000000
       0.759719193      0.000000000      0.000000000
       0.939928888      0.500000000      0.000000000
       0.759719193      0.000000000      0.500000000
       0.939928888      0.500000000      0.500000000
       0.699651690      0.500000000      0.500000000
       0.879861406      0.000000000      0.500000000
