 B10\(6)                                 
   1.0000000000000000     
      19.910799980      0.000000000      0.000000000
       0.000000000      3.727099895      0.000000000
       0.000000000      0.000000000      2.892999887
 B  B                                                                            
          20          20
 Direct                                                                          
       0.121804714      0.624310017      0.250000000
       0.283912706      0.124310002      0.250000000
       0.040303292      0.875689983      0.750000000
       0.202411298      0.375690013      0.750000000
       0.000000000      0.751380026      0.250000000
       0.162108002      0.251379997      0.250000000
       0.000000000      0.248620003      0.750000000
       0.162108002      0.748619974      0.750000000
       0.040303292      0.124310002      0.250000000
       0.202411298      0.624310017      0.250000000
       0.121804714      0.375690013      0.750000000
       0.283912706      0.875689983      0.750000000
       0.054037080      0.500000000      0.000000000
       0.216145091      0.000000000      0.000000000
       0.108070922      0.000000000      0.000000000
       0.270178914      0.500000000      0.000000000
       0.108070922      0.000000000      0.500000000
       0.270178914      0.500000000      0.500000000
       0.054037080      0.500000000      0.500000000
       0.216145091      0.000000000      0.500000000
       0.797588711      0.624310017      0.250000000
       0.959696703      0.124310002      0.250000000
       0.716087289      0.875689983      0.750000000
       0.878195295      0.375690013      0.750000000
       0.675783997      0.751380026      0.250000000
       0.837891998      0.251379997      0.250000000
       0.675783997      0.248620003      0.750000000
       0.837891998      0.748619974      0.750000000
       0.716087289      0.124310002      0.250000000
       0.878195295      0.624310017      0.250000000
       0.797588711      0.375690013      0.750000000
       0.959696703      0.875689983      0.750000000
       0.729821076      0.500000000      0.000000000
       0.891929087      0.000000000      0.000000000
       0.783854919      0.000000000      0.000000000
       0.945962911      0.500000000      0.000000000
       0.783854919      0.000000000      0.500000000
       0.945962911      0.500000000      0.500000000
       0.729821076      0.500000000      0.500000000
       0.891929087      0.000000000      0.500000000
